solution status: optimal solution found
objective value:                                   35
shell_i_bank.thing.devices[0].thingy.vcell_out                    1 	(obj:0)
shell_i_bank.thing.devices[0].thingy.vbead_out                    1 	(obj:0)
shell_i_bank.thing.devices[0].thingy.vcollect                    1 	(obj:0)
shell_i_bank.thing.devices[0].thingy.vcell_in                    1 	(obj:0)
shell_i_bank.thing.devices[0].thingy.vlysis_in                    1 	(obj:0)
shell_i_bank.thing.devices[0].thingy.vlysis_out                    1 	(obj:0)
shell_i_bank.thing.devices[0].thingy.vwaste                    1 	(obj:0)
shell_i_bank.thing.devices[0].thingy.vpush                    1 	(obj:0)
shell_i_bank.thing.devices[0].thingy.vbead_in                    1 	(obj:0)
bank.thing.devices[0].thingy.vbead_out_y                    3 	(obj:0)
bank.thing.devices[0].thingy.vbead_out_z                   17 	(obj:0)
bank.thing.devices[0].thingy.vlysis_in_x                   -7 	(obj:0)
bank.thing.devices[0].thingy.vlysis_in_y                    3 	(obj:0)
bank.thing.devices[0].thingy.vlysis_in_z                   21 	(obj:0)
bank.thing.devices[0].thingy.vcell_out_z                   23 	(obj:0)
bank.thing.devices[0].thingy.vcell_out_x                   -7 	(obj:0)
bank.thing.devices[0].thingy.vlysis_out_x                   -7 	(obj:0)
bank.thing.devices[0].thingy.vlysis_out_y                    4 	(obj:0)
bank.thing.devices[0].thingy.vlysis_out_z                   19 	(obj:0)
bank.thing.devices[0].thingy.vcollect_x                   -7 	(obj:0)
bank.thing.devices[0].thingy.vcollect_y                   -1 	(obj:0)
bank.thing.devices[0].thingy.vwaste_x                   -7 	(obj:0)
bank.thing.devices[0].thingy.vwaste_y                   -1 	(obj:0)
bank.thing.devices[0].thingy.vwaste_z                   14 	(obj:0)
bank.thing.devices[0].thingy.vcollect_z                   13 	(obj:0)
bank.thing.devices[0].thingy.vcell_out_y                    4 	(obj:0)
bank.thing.devices[0].thingy.vpush_x                   -7 	(obj:0)
bank.thing.devices[0].thingy.vpush_z                   22 	(obj:0)
bank.thing.devices[0].thingy.vbead_out_x                   -7 	(obj:0)
bank.thing.devices[0].thingy.vcell_in_x                   -7 	(obj:0)
bank.thing.devices[0].thingy.vbead_in_x                   -7 	(obj:0)
bank.thing.devices[0].thingy.vbead_in_y                    2 	(obj:0)
bank.thing.devices[0].thingy.vbead_in_z                   17 	(obj:0)
bank.thing.devices[0].thingy.vcell_in_z                   23 	(obj:0)
x48                                                 1 	(obj:1)
x53                                                 2 	(obj:1)
x56                                                 1 	(obj:1)
x57                                                 1 	(obj:1)
x59                                                 1 	(obj:1)
x60                                                 1 	(obj:1)
x62                                                 1 	(obj:1)
x72                                                 2 	(obj:1)
x74                                                 1 	(obj:1)
x75                                                 1 	(obj:1)
x77                                                 1 	(obj:1)
x82                                                 3 	(obj:1)
x83                                                 2 	(obj:1)
x84                                                 3 	(obj:1)
x93                                                 2 	(obj:1)
x96                                                 1 	(obj:1)
x98                                                 2 	(obj:1)
x108                                                1 	(obj:1)
x110                                                2 	(obj:1)
x114                                                2 	(obj:1)
x120                                                1 	(obj:1)
x122                                                2 	(obj:1)
x123                                                1 	(obj:1)
